language Essence 1.3
letting nnodes be 13
letting nrings be 7
letting capacity be 5
letting demand be {{1, 3},
{1, 7},
{1, 10},
{2, 3},
{2, 4},
{2, 7},
{2, 11},
{2, 13},
{3, 6},
{3, 7},
{3, 10},
{3, 11},
{4, 5},
{5, 8},
{6, 11},
{7, 9},
{7, 10},
{7, 11},
{7, 12},
{8, 10},
{9, 11},
{9, 12},
{9, 13},
{10, 11}}
